Si8
1.0
0.000000 -1.933500 -1.933500
1.933500 0.000000 -1.933500
1.933500 -1.933500 0.000000
Si
8
direct
0.400000 0.200000 0.200000 Si
0.050000 0.850000 0.050000 Si
0.200000 0.200000 0.200000 Si
0.050000 0.050000 0.850000 Si
0.200000 0.400000 0.200000 Si
0.050000 0.050000 0.050000 Si
0.200000 0.200000 0.400000 Si
0.850000 0.050000 0.050000 Si
