Si8
1.0
-0.000000 -0.000000 -1.000000
-0.000000 -1.000000 -0.000000
-1.000000 -0.000000 -0.000000
Si
8
direct
0.000000 0.000000 0.000000 Si
0.000000 0.500000 0.500000 Si
0.500000 0.000000 0.500000 Si
0.500000 0.500000 0.000000 Si
0.000000 0.000000 0.500000 Si
0.000000 0.500000 0.000000 Si
0.500000 0.000000 0.000000 Si
0.500000 0.500000 0.500000 Si
