frac coords of spacegroup number 14
4.0000
0.0000 0.0000 1.0000
0.0000 1.0000 0.0000
1.0000 0.0000 0.0000
Si 
4 
direct
0.2304 0.9532 0.5799
0.7696 0.0468 0.4201
0.7696 0.4532 0.9201
0.2304 0.5468 0.0799
