Si1
1.0
-0.000000 -0.000000 -4.700000
-0.000000 -4.700000 -0.000000
-4.700000 -0.000000 -0.000000
Si
1
direct
0.970662 0.559020 0.989095 Si
