Si1
1.0
-0.000000 -0.000000 -4.700000
-0.000000 -4.700000 -0.000000
-4.700000 -0.000000 -0.000000
Si
1
direct
0.630571 0.794889 0.270635 Si
