Si1
1.0
-0.000000 -0.000000 -4.700000
-0.000000 -4.700000 -0.000000
-4.700000 -0.000000 -0.000000
Si
1
direct
0.158772 0.204357 0.831426 Si
