Si1
1.0
-0.000000 -0.000000 -4.700000
-0.000000 -4.700000 -0.000000
-4.700000 -0.000000 -0.000000
Si
1
direct
0.003055 0.112070 0.613114 Si
